benchmark_instances/dzn_benchmark_instances/benchmark_instance_6-4.dzn
% Input: sequence of points
seq_points = [|5,2
              |1,3
              |1,4
              |2,4
              |3,4
              |5,4
              |2,5
              |3,5
              |6,0
              |6,6
              |0,2
              |0,3
              |0,6
              |0,0
             |];

num_points = 14;
