benchmark_instances/lp_benchmark_instances/benchmark_instance_6-4.lp
% Input: sequence of points
point(5,2).
point(1,3).
point(1,4).
point(2,4).
point(3,4).
point(5,4).
point(2,5).
point(3,5).
point(6,0).
point(6,6).
point(0,2).
point(0,3).
point(0,6).
point(0,0).
